2 42 15 14 38 44 16 61 86 85 99 94 96 97 13 58 
83 45 5 98 95 53 79 78 34 35 1 
82 47 36 49 10 20 66 32 70 
27 69 52 
92 59 31 63 64 11 19 62 90 51 9 81 50 3 68 26 54 
33 65 71 30 88 7 18 6 87 57 22 41 43 37 100 91 93 
72 39 67 23 75 56 74 4 55 25 24 80 77 
28 12 29 76 21 73 40 84 8 46 48 17 60 89 
